c File: instances/20_0.30_2.col
c
c Description: Random graph of size 20 vertices and P(0.3) of edges between any two vertices.
p col 20 190
e 1 8
e 1 12
e 1 17
e 2 4
e 2 9
e 2 11
e 2 12
e 2 16
e 2 17
e 3 4
e 3 12
e 3 13
e 3 14
e 3 17
e 3 19
e 4 9
e 4 12
e 4 13
e 4 16
e 4 17
e 5 10
e 5 14
e 5 15
e 5 18
e 6 8
e 6 14
e 6 19
e 6 20
e 7 9
e 7 10
e 7 11
e 7 13
e 7 16
e 8 9
e 8 11
e 8 14
e 8 17
e 9 14
e 9 16
e 9 19
e 10 11
e 10 12
e 10 13
e 10 17
e 11 12
e 11 16
e 11 17
e 11 18
e 11 20
e 12 17
e 12 20
e 13 17
e 15 17
e 15 19
e 15 20
e 16 18
e 18 20